; benchmark generated from python API
(set-info :status unknown)
(declare-datatypes ((RealState 0)) (((RMk1 (rval1 Real)) (RMk2 (rval2 Real)))))
 (assert
 (forall ((|v11:0| Real) )(forall ((|v10:1| Real) )(forall ((|v9:2| Real) )(forall ((|v8:3| Real) )(exists ((|v7:4_st| RealState) (val!4076 Real) )(exists ((|v6:5_st| RealState) (val!4077 Real) )(exists ((|v5:6_st| RealState) (val!4078 Real) )(exists ((|v4:7_st| RealState) (val!4079 Real) )(forall ((|v3:8| Real) )(forall ((|v2:9| Real) )(forall ((|v1:10| Real) )(forall ((|v0:11| Real) )(let ((?x118 (- 19.0)))
 (let ((?x1210 (* ?x118 |v8:3|)))
 (let ((?x2136 (+ (+ (+ (* (- 6.0) |v2:9|) (* 18.0 |v2:9|)) (* 16.0 |v8:3|)) ?x1210)))
 (let ((?x730 (- 13.0)))
 (let ((?x2939 (+ (+ (+ (* (- 18.0) |v0:11|) (* 9.0 |v9:2|)) (* ?x118 |v9:2|)) (* (- 16.0) |v10:1|))))
 (let ((?x410 (+ (+ (* (- 9.0) (rval2 |v7:4_st|)) (* 5.0 |v11:0|)) (* (- 15.0) |v9:2|))))
 (let ((?x136 (* 7.0 |v11:0|)))
 (let ((?x2829 (+ (+ (+ (* (- 16.0) (rval2 |v7:4_st|)) (* 2.0 |v8:3|)) (* ?x118 |v0:11|)) ?x136)))
 (let (($x3173 (or (and (<= ?x2829 17.0) (<= (+ ?x410 (* 7.0 (rval2 |v6:5_st|))) 1.0)) (or (<= ?x2939 ?x730) (<= ?x2136 10.0)))))
 (let ((?x2746 (- 8.0)))
 (let ((?x1934 (rval2 |v7:4_st|)))
 (let ((?x2299 (* 11.0 ?x1934)))
 (let ((?x2823 (+ (+ (+ (* (- 9.0) |v11:0|) (rval2 |v5:6_st|)) (* (- 7.0) |v8:3|)) ?x2299)))
 (let ((?x111 (rval2 |v5:6_st|)))
 (let ((?x1954 (* 4.0 ?x111)))
 (let ((?x1203 (+ (+ (+ (* (- 3.0) (rval2 |v4:7_st|)) (* 14.0 |v0:11|)) ?x1954) (* (- 15.0) |v10:1|))))
 (let ((?x2226 (- 2.0)))
 (let ((?x2471 (* 0.0 |v3:8|)))
 (let (($x25 (<= (+ (+ (+ (* (- 1.0) (rval2 |v4:7_st|)) (* 20.0 |v0:11|)) |v10:1|) ?x2471) ?x2226)))
 (let ((?x745 (- 7.0)))
 (let ((?x2934 (* 15.0 |v0:11|)))
 (let (($x1316 (<= (+ (+ (+ (* 17.0 |v3:8|) (* 11.0 |v9:2|)) (* 2.0 |v3:8|)) ?x2934) ?x745)))
 (let ((?x1627 (* 11.0 |v9:2|)))
 (let (($x1263 (<= (+ (+ (+ (* (- 5.0) |v2:9|) (* 12.0 |v9:2|)) ?x1210) ?x1627) 10.0)))
 (let ((?x2680 (+ (+ (+ (* 10.0 |v3:8|) (* (- 1.0) ?x111)) (* 14.0 |v10:1|)) (* 11.0 |v8:3|))))
 (let ((?x1319 (- 5.0)))
 (let ((?x1102 (* 19.0 |v1:10|)))
 (let ((?x2892 (+ (+ (+ (* (- 6.0) |v3:8|) |v8:3|) (* (- 17.0) (rval2 |v4:7_st|))) ?x1102)))
 (let ((?x951 (- 11.0)))
 (let (($x2582 (<= (+ (+ (+ (* 9.0 |v2:9|) (* ?x1319 |v11:0|)) (* (- 6.0) |v0:11|)) |v0:11|) ?x951)))
 (let (($x2442 (and (or (or $x2582 (<= ?x2892 ?x1319)) (or (<= ?x2680 1.0) $x1263)) (and $x1316 (and $x25 (<= ?x1203 15.0))))))
 (let ((?x1851 (- 3.0)))
 (let ((?x813 (rval2 |v6:5_st|)))
 (let ((?x690 (* 4.0 ?x813)))
 (let ((?x1247 (+ (+ (+ (* (- 18.0) |v11:0|) (* 18.0 |v3:8|)) (* 5.0 (rval2 |v4:7_st|))) ?x690)))
 (let ((?x2023 (- 4.0)))
 (let ((?x1656 (* ?x2023 |v0:11|)))
 (let (($x1564 (<= (+ (+ (+ (* (- 12.0) |v2:9|) ?x2299) (* 18.0 |v3:8|)) ?x1656) 11.0)))
 (let ((?x2632 (+ (+ (+ (* 18.0 |v0:11|) (* 7.0 |v1:10|)) (* 3.0 |v2:9|)) (* ?x118 |v3:8|))))
 (let (($x2158 (<= ?x2632 7.0)))
 (let ((?x3180 (- 14.0)))
 (let ((?x567 (* 8.0 |v3:8|)))
 (let ((?x700 (+ (+ (+ (* 12.0 (rval2 |v4:7_st|)) (* (- 15.0) ?x1934)) (* 10.0 ?x1934)) ?x567)))
 (let ((?x1385 (- 6.0)))
 (let ((?x420 (* ?x1385 |v1:10|)))
 (let ((?x1105 (* ?x2746 |v1:10|)))
 (let (($x2579 (<= (+ (+ (+ (* (- 20.0) |v8:3|) (* ?x1851 |v8:3|)) (* 15.0 |v3:8|)) ?x1105) ?x3180)))
 (let (($x2365 (and $x2579 (<= (+ (+ (+ (* ?x951 ?x111) ?x420) (* 17.0 |v11:0|)) ?x420) 3.0))))
 (let ((?x28 (* ?x1319 |v9:2|)))
 (let (($x268 (<= (+ (+ (+ (* 6.0 ?x1934) (* 14.0 |v8:3|)) (* 12.0 ?x1934)) ?x28) 2.0)))
 (let ((?x819 (* 17.0 |v11:0|)))
 (let ((?x1425 (+ (+ (+ (* 5.0 |v2:9|) (* (- 9.0) |v1:10|)) (* 4.0 |v8:3|)) ?x819)))
 (let (($x2277 (and (and (or (<= ?x1425 4.0) $x268) $x2365) (and (or (<= ?x700 ?x3180) $x2158) (and $x1564 (<= ?x1247 ?x1851))))))
 (let ((?x2661 (+ (+ (+ (* 5.0 |v0:11|) (* ?x2226 ?x813)) (* 0.0 ?x813)) (* 3.0 (rval2 |v4:7_st|)))))
 (let ((?x960 (* ?x1851 |v2:9|)))
 (let ((?x1467 (+ (+ (+ (* 16.0 |v1:10|) (* (- 10.0) |v10:1|)) (* 0.0 ?x1934)) ?x960)))
 (let ((?x2265 (- 10.0)))
 (let ((?x263 (+ (+ (+ (* 10.0 |v2:9|) (* ?x118 (rval2 |v4:7_st|))) (* ?x1319 ?x1934)) (* ?x3180 ?x1934))))
 (let ((?x2370 (- 12.0)))
 (let (($x1879 (<= (+ (+ (+ (* 13.0 |v3:8|) ?x813) (* 7.0 |v3:8|)) (* ?x2370 |v11:0|)) ?x2370)))
 (let (($x160 (and (and $x1879 (<= ?x263 ?x2265)) (and (<= ?x1467 20.0) (<= ?x2661 ?x1319)))))
 (let ((?x1269 (+ (+ (+ (* (- 20.0) ?x111) (* (- 1.0) |v10:1|)) (* ?x2265 |v10:1|)) (* (- 15.0) ?x813))))
 (let (($x1491 (or (and (or (<= ?x1269 18.0) $x160) $x2277) (and $x2442 (and (<= ?x2823 ?x2746) $x3173)))))
 (let ((?x1800 (* ?x2370 |v2:9|)))
 (let (($x1923 (<= (+ (+ (+ (* ?x118 |v1:10|) (* ?x2370 |v10:1|)) (* (- 17.0) |v0:11|)) ?x1800) 1.0)))
 (let ((?x1607 (* 2.0 |v2:9|)))
 (let (($x1000 (<= (+ (+ (+ (* 20.0 |v0:11|) (* 5.0 ?x111)) (* ?x745 ?x1934)) ?x1607) ?x2226)))
 (let ((?x2603 (- 18.0)))
 (let ((?x428 (+ (+ (+ (* 2.0 ?x1934) (* ?x730 |v9:2|)) (* ?x118 (rval2 |v4:7_st|))) (* ?x730 ?x111))))
 (let (($x287 (<= (+ (+ (+ (* ?x2603 |v11:0|) (* 12.0 |v11:0|)) ?x690) (* (- 9.0) ?x813)) 2.0)))
 (let ((?x1099 (* 14.0 |v11:0|)))
 (let (($x563 (<= (+ (+ (+ (* ?x730 ?x1934) (* 17.0 ?x111)) (* 3.0 |v10:1|)) ?x1099) 2.0)))
 (let ((?x2748 (+ (+ (+ (* 5.0 |v9:2|) (* ?x1319 |v1:10|)) (* 11.0 |v1:10|)) (* (- 9.0) |v9:2|))))
 (let ((?x2187 (+ (+ (+ (* 15.0 ?x111) (* (- 20.0) |v0:11|)) (* 18.0 ?x813)) (* (- 1.0) |v8:3|))))
 (let (($x1819 (or (<= (+ (+ (+ ?x1934 (* ?x2226 |v0:11|)) ?x2299) (* 15.0 |v3:8|)) 10.0) (<= ?x2187 8.0))))
 (let (($x2459 (and (or $x1819 (and (<= ?x2748 ?x951) $x563)) (and (and $x287 (<= ?x428 ?x2603)) (or $x1000 $x1923)))))
 (let ((?x3099 (+ (+ (+ (* ?x2603 ?x111) (* (- 20.0) |v8:3|)) (* 4.0 ?x1934)) (* 18.0 |v9:2|))))
 (let (($x2987 (<= (+ (+ (+ (* ?x118 ?x813) (* 19.0 ?x1934)) ?x1607) (* 4.0 |v10:1|)) 11.0)))
 (let (($x867 (<= (+ (+ (+ (* 16.0 |v10:1|) (* 0.0 ?x111)) (* 9.0 |v11:0|)) ?x1102) 7.0)))
 (let ((?x1285 (+ (+ (+ (* (- 17.0) ?x111) (* 5.0 |v10:1|)) (* (- 20.0) |v10:1|)) (* 13.0 |v10:1|))))
 (let (($x1707 (<= (+ (+ (+ |v3:8| (* (- 9.0) |v1:10|)) (* ?x1385 |v8:3|)) (* 12.0 |v9:2|)) 16.0)))
 (let (($x1672 (and (or $x1707 (or (and (<= ?x1285 ?x730) $x867) (or $x2987 (<= ?x3099 ?x3180)))) $x2459)))
 (let (($x94 (<= (+ (+ (+ (* ?x2603 ?x111) (* ?x2226 |v11:0|)) ?x28) (* 11.0 ?x111)) ?x2370)))
 (let ((?x2944 (- 1.0)))
 (let ((?x78 (* 15.0 |v2:9|)))
 (let (($x361 (<= (+ (+ (+ (* ?x2944 |v2:9|) (* ?x2746 ?x111)) (* ?x745 |v0:11|)) ?x78) ?x2944)))
 (let ((?x2677 (+ (+ (+ (* 10.0 ?x111) (* 13.0 |v2:9|)) (* (- 16.0) |v1:10|)) (* ?x2265 ?x813))))
 (let (($x448 (<= (+ (+ (+ (* 5.0 |v3:8|) (* ?x730 |v0:11|)) ?x813) (* ?x2023 |v1:10|)) ?x2265)))
 (let ((?x1697 (* ?x2944 |v10:1|)))
 (let (($x1978 (<= (+ (+ (+ (* ?x2603 ?x813) (* (- 17.0) ?x111)) (* 17.0 |v2:9|)) ?x1697) ?x3180)))
 (let ((?x1032 (+ (+ (+ (* 16.0 |v11:0|) (* 13.0 |v9:2|)) (* ?x2944 |v9:2|)) (* 13.0 |v11:0|))))
 (let ((?x1744 (+ (+ (+ (* ?x2944 ?x1934) (* 16.0 (rval2 |v4:7_st|))) ?x1800) (* ?x3180 |v8:3|))))
 (let (($x1843 (<= (+ (+ (+ (* ?x2603 |v0:11|) (* ?x2370 ?x1934)) |v9:2|) (* 11.0 |v2:9|)) ?x2226)))
 (let ((?x2167 (* 5.0 |v9:2|)))
 (let (($x3002 (<= (+ (+ (+ (* ?x2226 ?x1934) (* 20.0 ?x1934)) (* 19.0 |v10:1|)) ?x2167) ?x2746)))
 (let (($x3109 (or (or $x3002 (or (and $x1843 (<= ?x1744 15.0)) (<= ?x1032 9.0))) (and (or (and $x1978 $x448) (or (<= ?x2677 ?x1319) $x361)) $x94))))
 (let (($x3027 (not (= |v4:7_st| (RMk1 val!4079)))))
 (let (($x820 (not (= |v5:6_st| (RMk1 val!4078)))))
 (let (($x1286 (not (= |v6:5_st| (RMk1 val!4077)))))
 (let (($x2483 (not (= |v7:4_st| (RMk1 val!4076)))))
 (and $x2483 $x1286 $x820 $x3027 (or (and $x3109 $x1672) $x1491)))))))))))))))))))))))))))))))))))))))))))))))))))))))))))))))))))))))))))))))))))))))))))))))))))))))
 )
 )
 )
 )
 )
 )
 )
 )
 )
 )
 )
 )
(check-sat)
